Minimize
  48 x(1) + 42 x(2) + 48 x(3) + 45 x(4) + 44 x(5) + 41 x(6) + 47 x(7)
   + 42 x(8) + 45 x(9) + 46 x(10) + [ - 100 x(1) ^2 - 100 x(2) ^2
   - 100 x(3) ^2 - 100 x(4) ^2 - 100 x(5) ^2 - 100 x(6) ^2
   - 100 x(7) ^2 - 100 x(8) ^2 - 100 x(9) ^2 - 100 x(10) ^2 ] / 2 
Subject To
 con1: - 8 x(1) + 7 x(2) - 4 x(3) - 5 x(4) - 9 x(5) + x(6) - 7 x(7) - x(8)
   + 3 x(9) - 2 x(10) <= -12
 con2: 9 x(1) + 5 x(2) - 9 x(4) + x(5) - 8 x(6) + 3 x(7) - 9 x(8) - 9 x(9)
   - 3 x(10) <= -23
 con3: - 5 x(1) + 6 x(2) + 5 x(3) + 3 x(4) + 8 x(5) - 8 x(6) + 9 x(7)
   + 2 x(8) - 9 x(10) <= -6
 con4: 6 x(1) - 5 x(2) + 8 x(3) - 3 x(4) + x(6) + 3 x(7) + 8 x(8) + 9 x(9)
   - 3 x(10) <= 22
 con5: - 2 x(1) - 6 x(2) - x(3) - 3 x(5) - 3 x(6) - 2 x(7) - 6 x(8)
   - 2 x(9) - 2 x(10) <= -4
Bounds
 x(1) <= 1
 x(2) <= 1
 x(3) <= 1
 x(4) <= 1
 x(5) <= 1
 x(6) <= 1
 x(7) <= 1
 x(8) <= 1
 x(9) <= 1
 x(10) <= 1
End
